instances/knapsack/discrete/knapsack_60_1.kp
5053
60
329

43 4.3 88
52 5.2 44
10 1.0 74
79 7.9 78
64 6.4 11
57 5.7 19
53 5.3 87
91 9.1 41
9 0.9 64
10 1.0 4
99 9.9 5
47 4.7 41
76 7.6 21
68 6.8 88
44 4.4 61
40 4.0 78
77 7.7 80
88 8.8 84
41 4.1 24
46 4.6 35
89 8.9 7
47 4.7 85
96 9.6 2
78 7.8 46
72 7.2 59
60 6.0 44
6 0.6 54
11 1.1 25
89 8.9 100
11 1.1 82
61 6.1 83
51 5.1 66
59 5.9 14
5 0.5 21
80 8.0 57
29 2.9 15
24 2.4 79
100 10.0 77
100 10.0 8
42 4.2 85
99 9.9 30
69 6.9 47
6 0.6 79
49 4.9 81
63 6.3 32
34 3.4 73
65 6.5 78
49 4.9 74
67 6.7 38
48 4.8 19
74 7.4 21
80 8.0 48
93 9.3 89
100 10.0 15
24 2.4 46
71 7.1 16
77 7.7 72
50 5.0 82
60 6.0 18
74 7.4 69

37497
251

[1.11 1.87 1.77 1.87 2.9 3.19 3.44 0.94 0.53 3.87 3.4 3.21 0.48 3.99 0.38 3.78 1.92 0.81 0.23 2.0 3.07 2.53 3.92 0.3 1.69 1.64 3.39 2.89 0.54 0.14 1.87 1.18 0.34 1.02 3.95 1.51 0.62 0.49 0.7 3.04 1.04 3.04 0.09 2.17 3.35 2.8 0.92 0.69 3.61 1.28 2.35 2.01 1.06 0.58 3.57 0.83 1.68 1.89 2.93 3.44]

[57 10 96 21 50 99 91 37 67 88 21 33 10 66 18 2 3 38 3 56 27 41 46 44 14 14 24 9 35 37 83 9 29 35 42 47 50 10 10 36 29 75 48 87 57 44 71 79 29 30 40 74 43 82 26 97 23 52 46 96]
