instances/knapsack/discrete/knapsack_60_1.mps
* Signature: 0x44a844bc7146bef8
NAME knapsack_60_1
ROWS
 N  OBJ
 L  primal_upper
 L  primal_lower
 L  mccormick1[0]
 L  mccormick1[1]
 L  mccormick1[2]
 L  mccormick1[3]
 L  mccormick1[4]
 L  mccormick1[5]
 L  mccormick1[6]
 L  mccormick1[7]
 L  mccormick1[8]
 L  mccormick1[9]
 L  mccormick1[10]
 L  mccormick1[11]
 L  mccormick1[12]
 L  mccormick1[13]
 L  mccormick1[14]
 L  mccormick1[15]
 L  mccormick1[16]
 L  mccormick1[17]
 L  mccormick1[18]
 L  mccormick1[19]
 L  mccormick1[20]
 L  mccormick1[21]
 L  mccormick1[22]
 L  mccormick1[23]
 L  mccormick1[24]
 L  mccormick1[25]
 L  mccormick1[26]
 L  mccormick1[27]
 L  mccormick1[28]
 L  mccormick1[29]
 L  mccormick1[30]
 L  mccormick1[31]
 L  mccormick1[32]
 L  mccormick1[33]
 L  mccormick1[34]
 L  mccormick1[35]
 L  mccormick1[36]
 L  mccormick1[37]
 L  mccormick1[38]
 L  mccormick1[39]
 L  mccormick1[40]
 L  mccormick1[41]
 L  mccormick1[42]
 L  mccormick1[43]
 L  mccormick1[44]
 L  mccormick1[45]
 L  mccormick1[46]
 L  mccormick1[47]
 L  mccormick1[48]
 L  mccormick1[49]
 L  mccormick1[50]
 L  mccormick1[51]
 L  mccormick1[52]
 L  mccormick1[53]
 L  mccormick1[54]
 L  mccormick1[55]
 L  mccormick1[56]
 L  mccormick1[57]
 L  mccormick1[58]
 L  mccormick1[59]
 L  mccormick2[0]
 L  mccormick2[1]
 L  mccormick2[2]
 L  mccormick2[3]
 L  mccormick2[4]
 L  mccormick2[5]
 L  mccormick2[6]
 L  mccormick2[7]
 L  mccormick2[8]
 L  mccormick2[9]
 L  mccormick2[10]
 L  mccormick2[11]
 L  mccormick2[12]
 L  mccormick2[13]
 L  mccormick2[14]
 L  mccormick2[15]
 L  mccormick2[16]
 L  mccormick2[17]
 L  mccormick2[18]
 L  mccormick2[19]
 L  mccormick2[20]
 L  mccormick2[21]
 L  mccormick2[22]
 L  mccormick2[23]
 L  mccormick2[24]
 L  mccormick2[25]
 L  mccormick2[26]
 L  mccormick2[27]
 L  mccormick2[28]
 L  mccormick2[29]
 L  mccormick2[30]
 L  mccormick2[31]
 L  mccormick2[32]
 L  mccormick2[33]
 L  mccormick2[34]
 L  mccormick2[35]
 L  mccormick2[36]
 L  mccormick2[37]
 L  mccormick2[38]
 L  mccormick2[39]
 L  mccormick2[40]
 L  mccormick2[41]
 L  mccormick2[42]
 L  mccormick2[43]
 L  mccormick2[44]
 L  mccormick2[45]
 L  mccormick2[46]
 L  mccormick2[47]
 L  mccormick2[48]
 L  mccormick2[49]
 L  mccormick2[50]
 L  mccormick2[51]
 L  mccormick2[52]
 L  mccormick2[53]
 L  mccormick2[54]
 L  mccormick2[55]
 L  mccormick2[56]
 L  mccormick2[57]
 L  mccormick2[58]
 L  mccormick2[59]
 L  mccormick3[0]
 L  mccormick3[1]
 L  mccormick3[2]
 L  mccormick3[3]
 L  mccormick3[4]
 L  mccormick3[5]
 L  mccormick3[6]
 L  mccormick3[7]
 L  mccormick3[8]
 L  mccormick3[9]
 L  mccormick3[10]
 L  mccormick3[11]
 L  mccormick3[12]
 L  mccormick3[13]
 L  mccormick3[14]
 L  mccormick3[15]
 L  mccormick3[16]
 L  mccormick3[17]
 L  mccormick3[18]
 L  mccormick3[19]
 L  mccormick3[20]
 L  mccormick3[21]
 L  mccormick3[22]
 L  mccormick3[23]
 L  mccormick3[24]
 L  mccormick3[25]
 L  mccormick3[26]
 L  mccormick3[27]
 L  mccormick3[28]
 L  mccormick3[29]
 L  mccormick3[30]
 L  mccormick3[31]
 L  mccormick3[32]
 L  mccormick3[33]
 L  mccormick3[34]
 L  mccormick3[35]
 L  mccormick3[36]
 L  mccormick3[37]
 L  mccormick3[38]
 L  mccormick3[39]
 L  mccormick3[40]
 L  mccormick3[41]
 L  mccormick3[42]
 L  mccormick3[43]
 L  mccormick3[44]
 L  mccormick3[45]
 L  mccormick3[46]
 L  mccormick3[47]
 L  mccormick3[48]
 L  mccormick3[49]
 L  mccormick3[50]
 L  mccormick3[51]
 L  mccormick3[52]
 L  mccormick3[53]
 L  mccormick3[54]
 L  mccormick3[55]
 L  mccormick3[56]
 L  mccormick3[57]
 L  mccormick3[58]
 L  mccormick3[59]
COLUMNS
    MARKER    'MARKER'                 'INTORG'
    x[0]      OBJ       -95
    x[0]      primal_upper  70
    x[0]      primal_lower  6.9934554794643078e-01
    x[0]      mccormick2[0]  -1
    x[0]      mccormick3[0]  1
    x[1]      OBJ       -59
    x[1]      primal_upper  15
    x[1]      primal_lower  2.0784694856769694e+00
    x[1]      mccormick2[1]  -1
    x[1]      mccormick3[1]  1
    x[2]      OBJ       -45
    x[2]      primal_upper  93
    x[2]      primal_lower  3.5515771426030671e+00
    x[2]      mccormick2[2]  -1
    x[2]      mccormick3[2]  1
    x[3]      OBJ       -97
    x[3]      primal_upper  94
    x[3]      primal_lower  2.1031996137715417e-01
    x[3]      mccormick2[3]  -1
    x[3]      mccormick3[3]  1
    x[4]      OBJ       -22
    x[4]      primal_upper  63
    x[4]      primal_lower  1.7717288738411014e+00
    x[4]      mccormick2[4]  -1
    x[4]      mccormick3[4]  1
    x[5]      OBJ       -26
    x[5]      primal_upper  4
    x[5]      primal_lower  1.2441390830828725e+00
    x[5]      mccormick2[5]  -1
    x[5]      mccormick3[5]  1
    x[6]      OBJ       -58
    x[6]      primal_upper  56
    x[6]      primal_lower  1.16503321696737
    x[6]      mccormick2[6]  -1
    x[6]      mccormick3[6]  1
    x[7]      OBJ       -16
    x[7]      primal_upper  94
    x[7]      primal_lower  3.5447072468995162e+00
    x[7]      mccormick2[7]  -1
    x[7]      mccormick3[7]  1
    x[8]      OBJ       -71
    x[8]      primal_upper  60
    x[8]      primal_lower  5.1144185140773191e-01
    x[8]      mccormick2[8]  -1
    x[8]      mccormick3[8]  1
    x[9]      OBJ       -47
    x[9]      primal_upper  73
    x[9]      primal_lower  5.0391729953359310e-01
    x[9]      mccormick2[9]  -1
    x[9]      mccormick3[9]  1
    x[10]     OBJ       -44
    x[10]     primal_upper  50
    x[10]     primal_lower  2.2230828145528649e+00
    x[10]     mccormick2[10]  -1
    x[10]     mccormick3[10]  1
    x[11]     OBJ       -16
    x[11]     primal_upper  74
    x[11]     primal_lower  2.1329357717729480e+00
    x[11]     mccormick2[11]  -1
    x[11]     mccormick3[11]  1
    x[12]     OBJ       -28
    x[12]     primal_upper  35
    x[12]     primal_lower  1.4157427998291325e+00
    x[12]     mccormick2[12]  -1
    x[12]     mccormick3[12]  1
    x[13]     OBJ       -23
    x[13]     primal_upper  55
    x[13]     primal_lower  1.7764028787580262e+00
    x[13]     mccormick2[13]  -1
    x[13]     mccormick3[13]  1
    x[14]     OBJ       -64
    x[14]     primal_upper  51
    x[14]     primal_lower  3.2944866422708525e+00
    x[14]     mccormick2[14]  -1
    x[14]     mccormick3[14]  1
    x[15]     OBJ       -37
    x[15]     primal_upper  39
    x[15]     primal_lower  4.5638604027599232e+00
    x[15]     mccormick2[15]  -1
    x[15]     mccormick3[15]  1
    x[16]     OBJ       -55
    x[16]     primal_upper  96
    x[16]     primal_lower  4.9532765025721952e+00
    x[16]     mccormick2[16]  -1
    x[16]     mccormick3[16]  1
    x[17]     OBJ       -31
    x[17]     primal_upper  59
    x[17]     primal_lower  8.3590358301400347e-01
    x[17]     mccormick2[17]  -1
    x[17]     mccormick3[17]  1
    x[18]     OBJ       -31
    x[18]     primal_upper  80
    x[18]     primal_lower  1.0845962417565969e+00
    x[18]     mccormick2[18]  -1
    x[18]     mccormick3[18]  1
    x[19]     OBJ       -74
    x[19]     primal_upper  21
    x[19]     primal_lower  4.4516690274653836e+00
    x[19]     mccormick2[19]  -1
    x[19]     mccormick3[19]  1
    x[20]     OBJ       -82
    x[20]     primal_upper  60
    x[20]     primal_lower  4.8241210069528107e+00
    x[20]     mccormick2[20]  -1
    x[20]     mccormick3[20]  1
    x[21]     OBJ       -60
    x[21]     primal_upper  34
    x[21]     primal_lower  1.2854040996708940e+00
    x[21]     mccormick2[21]  -1
    x[21]     mccormick3[21]  1
    x[22]     OBJ       -25
    x[22]     primal_upper  47
    x[22]     primal_lower  4.6672483335117132e+00
    x[22]     mccormick2[22]  -1
    x[22]     mccormick3[22]  1
    x[23]     OBJ       -89
    x[23]     primal_upper  89
    x[23]     primal_lower  9.8478749721292308e-02
    x[23]     mccormick2[23]  -1
    x[23]     mccormick3[23]  1
    x[24]     OBJ       -86
    x[24]     primal_upper  19
    x[24]     primal_lower  1.17650010812917
    x[24]     mccormick2[24]  -1
    x[24]     mccormick3[24]  1
    x[25]     OBJ       -87
    x[25]     primal_upper  83
    x[25]     primal_lower  6.8939797325917263e-01
    x[25]     mccormick2[25]  -1
    x[25]     mccormick3[25]  1
    x[26]     OBJ       -73
    x[26]     primal_upper  25
    x[26]     primal_lower  2.9213241288588723e+00
    x[26]     mccormick2[26]  -1
    x[26]     mccormick3[26]  1
    x[27]     OBJ       -72
    x[27]     primal_upper  70
    x[27]     primal_lower  1.2171386403236988e+00
    x[27]     mccormick2[27]  -1
    x[27]     mccormick3[27]  1
    x[28]     OBJ       -83
    x[28]     primal_upper  40
    x[28]     primal_lower  4.1839471617981818e+00
    x[28]     mccormick2[28]  -1
    x[28]     mccormick3[28]  1
    x[29]     OBJ       -29
    x[29]     primal_upper  6
    x[29]     primal_lower  4.68867366971962
    x[29]     mccormick2[29]  -1
    x[29]     mccormick3[29]  1
    x[30]     OBJ       -94
    x[30]     primal_upper  96
    x[30]     primal_lower  1.1403501093824542e+00
    x[30]     mccormick2[30]  -1
    x[30]     mccormick3[30]  1
    x[31]     OBJ       -9
    x[31]     primal_upper  6
    x[31]     primal_lower  0.535995241184621
    x[31]     mccormick2[31]  -1
    x[31]     mccormick3[31]  1
    x[32]     OBJ       -5
    x[32]     primal_upper  62
    x[32]     primal_lower  4.1272492953244182e+00
    x[32]     mccormick2[32]  -1
    x[32]     mccormick3[32]  1
    x[33]     OBJ       -56
    x[33]     primal_upper  60
    x[33]     primal_lower  4.8188526464147907e+00
    x[33]     mccormick2[33]  -1
    x[33]     mccormick3[33]  1
    x[34]     OBJ       -92
    x[34]     primal_upper  59
    x[34]     primal_lower  2.7554763834416192e+00
    x[34]     mccormick2[34]  -1
    x[34]     mccormick3[34]  1
    x[35]     OBJ       -34
    x[35]     primal_upper  84
    x[35]     primal_lower  3.9641562866857689e+00
    x[35]     mccormick2[35]  -1
    x[35]     mccormick3[35]  1
    x[36]     OBJ       -50
    x[36]     primal_upper  55
    x[36]     primal_lower  4.4257706473931728e+00
    x[36]     mccormick2[36]  -1
    x[36]     mccormick3[36]  1
    x[37]     OBJ       -84
    x[37]     primal_upper  31
    x[37]     primal_lower  3.7917931498002391e+00
    x[37]     mccormick2[37]  -1
    x[37]     mccormick3[37]  1
    x[38]     OBJ       -7
    x[38]     primal_upper  75
    x[38]     primal_lower  1.3425040310871819e+00
    x[38]     mccormick2[38]  -1
    x[38]     mccormick3[38]  1
    x[39]     OBJ       -12
    x[39]     primal_upper  1
    x[39]     primal_lower  1.3859661084557903e-01
    x[39]     mccormick2[39]  -1
    x[39]     mccormick3[39]  1
    x[40]     OBJ       -49
    x[40]     primal_upper  50
    x[40]     primal_lower  3.7825444626063103e+00
    x[40]     mccormick2[40]  -1
    x[40]     mccormick3[40]  1
    x[41]     OBJ       -86
    x[41]     primal_upper  84
    x[41]     primal_lower  5.0282996875942052e+00
    x[41]     mccormick2[41]  -1
    x[41]     mccormick3[41]  1
    x[42]     OBJ       -90
    x[42]     primal_upper  65
    x[42]     primal_lower  4.9137108409862709e+00
    x[42]     mccormick2[42]  -1
    x[42]     mccormick3[42]  1
    x[43]     OBJ       -16
    x[43]     primal_upper  28
    x[43]     primal_lower  2.3558203964542921e+00
    x[43]     mccormick2[43]  -1
    x[43]     mccormick3[43]  1
    x[44]     OBJ       -51
    x[44]     primal_upper  26
    x[44]     primal_lower  3.8991647880166842e+00
    x[44]     mccormick2[44]  -1
    x[44]     mccormick3[44]  1
    x[45]     OBJ       -36
    x[45]     primal_upper  25
    x[45]     primal_lower  1.2074618768255976e+00
    x[45]     mccormick2[45]  -1
    x[45]     mccormick3[45]  1
    x[46]     OBJ       -65
    x[46]     primal_upper  76
    x[46]     primal_lower  1.1277872379526817e+00
    x[46]     mccormick2[46]  -1
    x[46]     mccormick3[46]  1
    x[47]     OBJ       -21
    x[47]     primal_upper  12
    x[47]     primal_lower  4.9927866769903737e+00
    x[47]     mccormick2[47]  -1
    x[47]     mccormick3[47]  1
    x[48]     OBJ       -49
    x[48]     primal_upper  38
    x[48]     primal_lower  2.4615567987364320e+00
    x[48]     mccormick2[48]  -1
    x[48]     mccormick3[48]  1
    x[49]     OBJ       -10
    x[49]     primal_upper  47
    x[49]     primal_lower  9.2080572682418993e-01
    x[49]     mccormick2[49]  -1
    x[49]     mccormick3[49]  1
    x[50]     OBJ       -40
    x[50]     primal_upper  33
    x[50]     primal_lower  1.3892933432847117e+00
    x[50]     mccormick2[50]  -1
    x[50]     mccormick3[50]  1
    x[51]     OBJ       -35
    x[51]     primal_upper  51
    x[51]     primal_lower  1.1248359093444236e+00
    x[51]     mccormick2[51]  -1
    x[51]     mccormick3[51]  1
    x[52]     OBJ       -76
    x[52]     primal_upper  60
    x[52]     primal_lower  3.7337377675372538e+00
    x[52]     mccormick2[52]  -1
    x[52]     mccormick3[52]  1
    x[53]     OBJ       -90
    x[53]     primal_upper  15
    x[53]     primal_lower  3.0781119852980030e+00
    x[53]     mccormick2[53]  -1
    x[53]     mccormick3[53]  1
    x[54]     OBJ       -49
    x[54]     primal_upper  87
    x[54]     primal_lower  8.6378834273549587e-01
    x[54]     mccormick2[54]  -1
    x[54]     mccormick3[54]  1
    x[55]     OBJ       -39
    x[55]     primal_upper  86
    x[55]     primal_lower  3.6802944108194806e+00
    x[55]     mccormick2[55]  -1
    x[55]     mccormick3[55]  1
    x[56]     OBJ       -55
    x[56]     primal_upper  76
    x[56]     primal_lower  2.2793017197562935e+00
    x[56]     mccormick2[56]  -1
    x[56]     mccormick3[56]  1
    x[57]     OBJ       -9
    x[57]     primal_upper  73
    x[57]     primal_lower  3.7369550002049
    x[57]     mccormick2[57]  -1
    x[57]     mccormick3[57]  1
    x[58]     OBJ       -37
    x[58]     primal_upper  95
    x[58]     primal_lower  3.5353273912118506e+00
    x[58]     mccormick2[58]  -1
    x[58]     mccormick3[58]  1
    x[59]     OBJ       -100
    x[59]     primal_upper  73
    x[59]     primal_lower  3.4716782136434681e+00
    x[59]     mccormick2[59]  -1
    x[59]     mccormick3[59]  1
    u[0]      primal_lower  76
    u[0]      mccormick1[0]  -1
    u[0]      mccormick3[0]  1
    u[1]      primal_lower  49
    u[1]      mccormick1[1]  -1
    u[1]      mccormick3[1]  1
    u[2]      primal_lower  3
    u[2]      mccormick1[2]  -1
    u[2]      mccormick3[2]  1
    u[3]      primal_lower  72
    u[3]      mccormick1[3]  -1
    u[3]      mccormick3[3]  1
    u[4]      primal_lower  41
    u[4]      mccormick1[4]  -1
    u[4]      mccormick3[4]  1
    u[5]      primal_lower  14
    u[5]      mccormick1[5]  -1
    u[5]      mccormick3[5]  1
    u[6]      primal_lower  98
    u[6]      mccormick1[6]  -1
    u[6]      mccormick3[6]  1
    u[7]      primal_lower  96
    u[7]      mccormick1[7]  -1
    u[7]      mccormick3[7]  1
    u[8]      primal_lower  74
    u[8]      mccormick1[8]  -1
    u[8]      mccormick3[8]  1
    u[9]      primal_lower  79
    u[9]      mccormick1[9]  -1
    u[9]      mccormick3[9]  1
    u[10]     primal_lower  88
    u[10]     mccormick1[10]  -1
    u[10]     mccormick3[10]  1
    u[11]     primal_lower  32
    u[11]     mccormick1[11]  -1
    u[11]     mccormick3[11]  1
    u[12]     primal_lower  37
    u[12]     mccormick1[12]  -1
    u[12]     mccormick3[12]  1
    u[13]     primal_lower  97
    u[13]     mccormick1[13]  -1
    u[13]     mccormick3[13]  1
    u[14]     primal_lower  49
    u[14]     mccormick1[14]  -1
    u[14]     mccormick3[14]  1
    u[15]     primal_lower  97
    u[15]     mccormick1[15]  -1
    u[15]     mccormick3[15]  1
    u[16]     primal_lower  74
    u[16]     mccormick1[16]  -1
    u[16]     mccormick3[16]  1
    u[17]     primal_lower  77
    u[17]     mccormick1[17]  -1
    u[17]     mccormick3[17]  1
    u[18]     primal_lower  30
    u[18]     mccormick1[18]  -1
    u[18]     mccormick3[18]  1
    u[19]     primal_lower  95
    u[19]     mccormick1[19]  -1
    u[19]     mccormick3[19]  1
    u[20]     primal_lower  18
    u[20]     mccormick1[20]  -1
    u[20]     mccormick3[20]  1
    u[21]     primal_lower  96
    u[21]     mccormick1[21]  -1
    u[21]     mccormick3[21]  1
    u[22]     primal_lower  81
    u[22]     mccormick1[22]  -1
    u[22]     mccormick3[22]  1
    u[23]     primal_lower  19
    u[23]     mccormick1[23]  -1
    u[23]     mccormick3[23]  1
    u[24]     primal_lower  81
    u[24]     mccormick1[24]  -1
    u[24]     mccormick3[24]  1
    u[25]     primal_lower  93
    u[25]     mccormick1[25]  -1
    u[25]     mccormick3[25]  1
    u[26]     primal_lower  47
    u[26]     mccormick1[26]  -1
    u[26]     mccormick3[26]  1
    u[27]     primal_lower  4
    u[27]     mccormick1[27]  -1
    u[27]     mccormick3[27]  1
    u[28]     primal_lower  34
    u[28]     mccormick1[28]  -1
    u[28]     mccormick3[28]  1
    u[29]     primal_lower  20
    u[29]     mccormick1[29]  -1
    u[29]     mccormick3[29]  1
    u[30]     primal_lower  62
    u[30]     mccormick1[30]  -1
    u[30]     mccormick3[30]  1
    u[31]     primal_lower  84
    u[31]     mccormick1[31]  -1
    u[31]     mccormick3[31]  1
    u[32]     primal_lower  4
    u[32]     mccormick1[32]  -1
    u[32]     mccormick3[32]  1
    u[33]     primal_lower  58
    u[33]     mccormick1[33]  -1
    u[33]     mccormick3[33]  1
    u[34]     primal_lower  21
    u[34]     mccormick1[34]  -1
    u[34]     mccormick3[34]  1
    u[35]     primal_lower  2
    u[35]     mccormick1[35]  -1
    u[35]     mccormick3[35]  1
    u[36]     primal_lower  29
    u[36]     mccormick1[36]  -1
    u[36]     mccormick3[36]  1
    u[37]     primal_lower  77
    u[37]     mccormick1[37]  -1
    u[37]     mccormick3[37]  1
    u[38]     primal_lower  85
    u[38]     mccormick1[38]  -1
    u[38]     mccormick3[38]  1
    u[39]     primal_lower  31
    u[39]     mccormick1[39]  -1
    u[39]     mccormick3[39]  1
    u[40]     primal_lower  56
    u[40]     mccormick1[40]  -1
    u[40]     mccormick3[40]  1
    u[41]     primal_lower  26
    u[41]     mccormick1[41]  -1
    u[41]     mccormick3[41]  1
    u[42]     primal_lower  63
    u[42]     mccormick1[42]  -1
    u[42]     mccormick3[42]  1
    u[43]     primal_lower  50
    u[43]     mccormick1[43]  -1
    u[43]     mccormick3[43]  1
    u[44]     primal_lower  96
    u[44]     mccormick1[44]  -1
    u[44]     mccormick3[44]  1
    u[45]     primal_lower  11
    u[45]     mccormick1[45]  -1
    u[45]     mccormick3[45]  1
    u[46]     primal_lower  18
    u[46]     mccormick1[46]  -1
    u[46]     mccormick3[46]  1
    u[47]     primal_lower  22
    u[47]     mccormick1[47]  -1
    u[47]     mccormick3[47]  1
    u[48]     primal_lower  68
    u[48]     mccormick1[48]  -1
    u[48]     mccormick3[48]  1
    u[49]     primal_lower  57
    u[49]     mccormick1[49]  -1
    u[49]     mccormick3[49]  1
    u[50]     primal_lower  63
    u[50]     mccormick1[50]  -1
    u[50]     mccormick3[50]  1
    u[51]     primal_lower  5
    u[51]     mccormick1[51]  -1
    u[51]     mccormick3[51]  1
    u[52]     primal_lower  70
    u[52]     mccormick1[52]  -1
    u[52]     mccormick3[52]  1
    u[53]     primal_lower  73
    u[53]     mccormick1[53]  -1
    u[53]     mccormick3[53]  1
    u[54]     primal_lower  77
    u[54]     mccormick1[54]  -1
    u[54]     mccormick3[54]  1
    u[55]     primal_lower  52
    u[55]     mccormick1[55]  -1
    u[55]     mccormick3[55]  1
    u[56]     primal_lower  30
    u[56]     mccormick1[56]  -1
    u[56]     mccormick3[56]  1
    u[57]     primal_lower  47
    u[57]     mccormick1[57]  -1
    u[57]     mccormick3[57]  1
    u[58]     primal_lower  1
    u[58]     mccormick1[58]  -1
    u[58]     mccormick3[58]  1
    u[59]     primal_lower  91
    u[59]     mccormick1[59]  -1
    u[59]     mccormick3[59]  1
    r[0]      primal_upper  7
    r[0]      mccormick1[0]  1
    r[0]      mccormick2[0]  1
    r[0]      mccormick3[0]  -1
    r[1]      primal_upper  1.5
    r[1]      mccormick1[1]  1
    r[1]      mccormick2[1]  1
    r[1]      mccormick3[1]  -1
    r[2]      primal_upper  9.3
    r[2]      mccormick1[2]  1
    r[2]      mccormick2[2]  1
    r[2]      mccormick3[2]  -1
    r[3]      primal_upper  9.4
    r[3]      mccormick1[3]  1
    r[3]      mccormick2[3]  1
    r[3]      mccormick3[3]  -1
    r[4]      primal_upper  6.3
    r[4]      mccormick1[4]  1
    r[4]      mccormick2[4]  1
    r[4]      mccormick3[4]  -1
    r[5]      primal_upper  0.4
    r[5]      mccormick1[5]  1
    r[5]      mccormick2[5]  1
    r[5]      mccormick3[5]  -1
    r[6]      primal_upper  5.6
    r[6]      mccormick1[6]  1
    r[6]      mccormick2[6]  1
    r[6]      mccormick3[6]  -1
    r[7]      primal_upper  9.4
    r[7]      mccormick1[7]  1
    r[7]      mccormick2[7]  1
    r[7]      mccormick3[7]  -1
    r[8]      primal_upper  6
    r[8]      mccormick1[8]  1
    r[8]      mccormick2[8]  1
    r[8]      mccormick3[8]  -1
    r[9]      primal_upper  7.3
    r[9]      mccormick1[9]  1
    r[9]      mccormick2[9]  1
    r[9]      mccormick3[9]  -1
    r[10]     primal_upper  5
    r[10]     mccormick1[10]  1
    r[10]     mccormick2[10]  1
    r[10]     mccormick3[10]  -1
    r[11]     primal_upper  7.4
    r[11]     mccormick1[11]  1
    r[11]     mccormick2[11]  1
    r[11]     mccormick3[11]  -1
    r[12]     primal_upper  3.5
    r[12]     mccormick1[12]  1
    r[12]     mccormick2[12]  1
    r[12]     mccormick3[12]  -1
    r[13]     primal_upper  5.5
    r[13]     mccormick1[13]  1
    r[13]     mccormick2[13]  1
    r[13]     mccormick3[13]  -1
    r[14]     primal_upper  5.1
    r[14]     mccormick1[14]  1
    r[14]     mccormick2[14]  1
    r[14]     mccormick3[14]  -1
    r[15]     primal_upper  3.9
    r[15]     mccormick1[15]  1
    r[15]     mccormick2[15]  1
    r[15]     mccormick3[15]  -1
    r[16]     primal_upper  9.6
    r[16]     mccormick1[16]  1
    r[16]     mccormick2[16]  1
    r[16]     mccormick3[16]  -1
    r[17]     primal_upper  5.9
    r[17]     mccormick1[17]  1
    r[17]     mccormick2[17]  1
    r[17]     mccormick3[17]  -1
    r[18]     primal_upper  8
    r[18]     mccormick1[18]  1
    r[18]     mccormick2[18]  1
    r[18]     mccormick3[18]  -1
    r[19]     primal_upper  2.1
    r[19]     mccormick1[19]  1
    r[19]     mccormick2[19]  1
    r[19]     mccormick3[19]  -1
    r[20]     primal_upper  6
    r[20]     mccormick1[20]  1
    r[20]     mccormick2[20]  1
    r[20]     mccormick3[20]  -1
    r[21]     primal_upper  3.4
    r[21]     mccormick1[21]  1
    r[21]     mccormick2[21]  1
    r[21]     mccormick3[21]  -1
    r[22]     primal_upper  4.7
    r[22]     mccormick1[22]  1
    r[22]     mccormick2[22]  1
    r[22]     mccormick3[22]  -1
    r[23]     primal_upper  8.9
    r[23]     mccormick1[23]  1
    r[23]     mccormick2[23]  1
    r[23]     mccormick3[23]  -1
    r[24]     primal_upper  1.9
    r[24]     mccormick1[24]  1
    r[24]     mccormick2[24]  1
    r[24]     mccormick3[24]  -1
    r[25]     primal_upper  8.3
    r[25]     mccormick1[25]  1
    r[25]     mccormick2[25]  1
    r[25]     mccormick3[25]  -1
    r[26]     primal_upper  2.5
    r[26]     mccormick1[26]  1
    r[26]     mccormick2[26]  1
    r[26]     mccormick3[26]  -1
    r[27]     primal_upper  7
    r[27]     mccormick1[27]  1
    r[27]     mccormick2[27]  1
    r[27]     mccormick3[27]  -1
    r[28]     primal_upper  4
    r[28]     mccormick1[28]  1
    r[28]     mccormick2[28]  1
    r[28]     mccormick3[28]  -1
    r[29]     primal_upper  0.6
    r[29]     mccormick1[29]  1
    r[29]     mccormick2[29]  1
    r[29]     mccormick3[29]  -1
    r[30]     primal_upper  9.6
    r[30]     mccormick1[30]  1
    r[30]     mccormick2[30]  1
    r[30]     mccormick3[30]  -1
    r[31]     primal_upper  0.6
    r[31]     mccormick1[31]  1
    r[31]     mccormick2[31]  1
    r[31]     mccormick3[31]  -1
    r[32]     primal_upper  6.2
    r[32]     mccormick1[32]  1
    r[32]     mccormick2[32]  1
    r[32]     mccormick3[32]  -1
    r[33]     primal_upper  6
    r[33]     mccormick1[33]  1
    r[33]     mccormick2[33]  1
    r[33]     mccormick3[33]  -1
    r[34]     primal_upper  5.9
    r[34]     mccormick1[34]  1
    r[34]     mccormick2[34]  1
    r[34]     mccormick3[34]  -1
    r[35]     primal_upper  8.4
    r[35]     mccormick1[35]  1
    r[35]     mccormick2[35]  1
    r[35]     mccormick3[35]  -1
    r[36]     primal_upper  5.5
    r[36]     mccormick1[36]  1
    r[36]     mccormick2[36]  1
    r[36]     mccormick3[36]  -1
    r[37]     primal_upper  3.1
    r[37]     mccormick1[37]  1
    r[37]     mccormick2[37]  1
    r[37]     mccormick3[37]  -1
    r[38]     primal_upper  7.5
    r[38]     mccormick1[38]  1
    r[38]     mccormick2[38]  1
    r[38]     mccormick3[38]  -1
    r[39]     primal_upper  0.1
    r[39]     mccormick1[39]  1
    r[39]     mccormick2[39]  1
    r[39]     mccormick3[39]  -1
    r[40]     primal_upper  5
    r[40]     mccormick1[40]  1
    r[40]     mccormick2[40]  1
    r[40]     mccormick3[40]  -1
    r[41]     primal_upper  8.4
    r[41]     mccormick1[41]  1
    r[41]     mccormick2[41]  1
    r[41]     mccormick3[41]  -1
    r[42]     primal_upper  6.5
    r[42]     mccormick1[42]  1
    r[42]     mccormick2[42]  1
    r[42]     mccormick3[42]  -1
    r[43]     primal_upper  2.8
    r[43]     mccormick1[43]  1
    r[43]     mccormick2[43]  1
    r[43]     mccormick3[43]  -1
    r[44]     primal_upper  2.6
    r[44]     mccormick1[44]  1
    r[44]     mccormick2[44]  1
    r[44]     mccormick3[44]  -1
    r[45]     primal_upper  2.5
    r[45]     mccormick1[45]  1
    r[45]     mccormick2[45]  1
    r[45]     mccormick3[45]  -1
    r[46]     primal_upper  7.6
    r[46]     mccormick1[46]  1
    r[46]     mccormick2[46]  1
    r[46]     mccormick3[46]  -1
    r[47]     primal_upper  1.2
    r[47]     mccormick1[47]  1
    r[47]     mccormick2[47]  1
    r[47]     mccormick3[47]  -1
    r[48]     primal_upper  3.8
    r[48]     mccormick1[48]  1
    r[48]     mccormick2[48]  1
    r[48]     mccormick3[48]  -1
    r[49]     primal_upper  4.7
    r[49]     mccormick1[49]  1
    r[49]     mccormick2[49]  1
    r[49]     mccormick3[49]  -1
    r[50]     primal_upper  3.3
    r[50]     mccormick1[50]  1
    r[50]     mccormick2[50]  1
    r[50]     mccormick3[50]  -1
    r[51]     primal_upper  5.1
    r[51]     mccormick1[51]  1
    r[51]     mccormick2[51]  1
    r[51]     mccormick3[51]  -1
    r[52]     primal_upper  6
    r[52]     mccormick1[52]  1
    r[52]     mccormick2[52]  1
    r[52]     mccormick3[52]  -1
    r[53]     primal_upper  1.5
    r[53]     mccormick1[53]  1
    r[53]     mccormick2[53]  1
    r[53]     mccormick3[53]  -1
    r[54]     primal_upper  8.7
    r[54]     mccormick1[54]  1
    r[54]     mccormick2[54]  1
    r[54]     mccormick3[54]  -1
    r[55]     primal_upper  8.6
    r[55]     mccormick1[55]  1
    r[55]     mccormick2[55]  1
    r[55]     mccormick3[55]  -1
    r[56]     primal_upper  7.6
    r[56]     mccormick1[56]  1
    r[56]     mccormick2[56]  1
    r[56]     mccormick3[56]  -1
    r[57]     primal_upper  7.3
    r[57]     mccormick1[57]  1
    r[57]     mccormick2[57]  1
    r[57]     mccormick3[57]  -1
    r[58]     primal_upper  9.5
    r[58]     mccormick1[58]  1
    r[58]     mccormick2[58]  1
    r[58]     mccormick3[58]  -1
    r[59]     primal_upper  7.3
    r[59]     mccormick1[59]  1
    r[59]     mccormick2[59]  1
    r[59]     mccormick3[59]  -1
    MARKER    'MARKER'                 'INTEND'
RHS
    RHS1      primal_upper  312
    RHS1      primal_lower  71271
    RHS1      mccormick3[0]  1
    RHS1      mccormick3[1]  1
    RHS1      mccormick3[2]  1
    RHS1      mccormick3[3]  1
    RHS1      mccormick3[4]  1
    RHS1      mccormick3[5]  1
    RHS1      mccormick3[6]  1
    RHS1      mccormick3[7]  1
    RHS1      mccormick3[8]  1
    RHS1      mccormick3[9]  1
    RHS1      mccormick3[10]  1
    RHS1      mccormick3[11]  1
    RHS1      mccormick3[12]  1
    RHS1      mccormick3[13]  1
    RHS1      mccormick3[14]  1
    RHS1      mccormick3[15]  1
    RHS1      mccormick3[16]  1
    RHS1      mccormick3[17]  1
    RHS1      mccormick3[18]  1
    RHS1      mccormick3[19]  1
    RHS1      mccormick3[20]  1
    RHS1      mccormick3[21]  1
    RHS1      mccormick3[22]  1
    RHS1      mccormick3[23]  1
    RHS1      mccormick3[24]  1
    RHS1      mccormick3[25]  1
    RHS1      mccormick3[26]  1
    RHS1      mccormick3[27]  1
    RHS1      mccormick3[28]  1
    RHS1      mccormick3[29]  1
    RHS1      mccormick3[30]  1
    RHS1      mccormick3[31]  1
    RHS1      mccormick3[32]  1
    RHS1      mccormick3[33]  1
    RHS1      mccormick3[34]  1
    RHS1      mccormick3[35]  1
    RHS1      mccormick3[36]  1
    RHS1      mccormick3[37]  1
    RHS1      mccormick3[38]  1
    RHS1      mccormick3[39]  1
    RHS1      mccormick3[40]  1
    RHS1      mccormick3[41]  1
    RHS1      mccormick3[42]  1
    RHS1      mccormick3[43]  1
    RHS1      mccormick3[44]  1
    RHS1      mccormick3[45]  1
    RHS1      mccormick3[46]  1
    RHS1      mccormick3[47]  1
    RHS1      mccormick3[48]  1
    RHS1      mccormick3[49]  1
    RHS1      mccormick3[50]  1
    RHS1      mccormick3[51]  1
    RHS1      mccormick3[52]  1
    RHS1      mccormick3[53]  1
    RHS1      mccormick3[54]  1
    RHS1      mccormick3[55]  1
    RHS1      mccormick3[56]  1
    RHS1      mccormick3[57]  1
    RHS1      mccormick3[58]  1
    RHS1      mccormick3[59]  1
BOUNDS
 BV BND1      x[0]    
 BV BND1      x[1]    
 BV BND1      x[2]    
 BV BND1      x[3]    
 BV BND1      x[4]    
 BV BND1      x[5]    
 BV BND1      x[6]    
 BV BND1      x[7]    
 BV BND1      x[8]    
 BV BND1      x[9]    
 BV BND1      x[10]   
 BV BND1      x[11]   
 BV BND1      x[12]   
 BV BND1      x[13]   
 BV BND1      x[14]   
 BV BND1      x[15]   
 BV BND1      x[16]   
 BV BND1      x[17]   
 BV BND1      x[18]   
 BV BND1      x[19]   
 BV BND1      x[20]   
 BV BND1      x[21]   
 BV BND1      x[22]   
 BV BND1      x[23]   
 BV BND1      x[24]   
 BV BND1      x[25]   
 BV BND1      x[26]   
 BV BND1      x[27]   
 BV BND1      x[28]   
 BV BND1      x[29]   
 BV BND1      x[30]   
 BV BND1      x[31]   
 BV BND1      x[32]   
 BV BND1      x[33]   
 BV BND1      x[34]   
 BV BND1      x[35]   
 BV BND1      x[36]   
 BV BND1      x[37]   
 BV BND1      x[38]   
 BV BND1      x[39]   
 BV BND1      x[40]   
 BV BND1      x[41]   
 BV BND1      x[42]   
 BV BND1      x[43]   
 BV BND1      x[44]   
 BV BND1      x[45]   
 BV BND1      x[46]   
 BV BND1      x[47]   
 BV BND1      x[48]   
 BV BND1      x[49]   
 BV BND1      x[50]   
 BV BND1      x[51]   
 BV BND1      x[52]   
 BV BND1      x[53]   
 BV BND1      x[54]   
 BV BND1      x[55]   
 BV BND1      x[56]   
 BV BND1      x[57]   
 BV BND1      x[58]   
 BV BND1      x[59]   
 BV BND1      u[0]    
 BV BND1      u[1]    
 BV BND1      u[2]    
 BV BND1      u[3]    
 BV BND1      u[4]    
 BV BND1      u[5]    
 BV BND1      u[6]    
 BV BND1      u[7]    
 BV BND1      u[8]    
 BV BND1      u[9]    
 BV BND1      u[10]   
 BV BND1      u[11]   
 BV BND1      u[12]   
 BV BND1      u[13]   
 BV BND1      u[14]   
 BV BND1      u[15]   
 BV BND1      u[16]   
 BV BND1      u[17]   
 BV BND1      u[18]   
 BV BND1      u[19]   
 BV BND1      u[20]   
 BV BND1      u[21]   
 BV BND1      u[22]   
 BV BND1      u[23]   
 BV BND1      u[24]   
 BV BND1      u[25]   
 BV BND1      u[26]   
 BV BND1      u[27]   
 BV BND1      u[28]   
 BV BND1      u[29]   
 BV BND1      u[30]   
 BV BND1      u[31]   
 BV BND1      u[32]   
 BV BND1      u[33]   
 BV BND1      u[34]   
 BV BND1      u[35]   
 BV BND1      u[36]   
 BV BND1      u[37]   
 BV BND1      u[38]   
 BV BND1      u[39]   
 BV BND1      u[40]   
 BV BND1      u[41]   
 BV BND1      u[42]   
 BV BND1      u[43]   
 BV BND1      u[44]   
 BV BND1      u[45]   
 BV BND1      u[46]   
 BV BND1      u[47]   
 BV BND1      u[48]   
 BV BND1      u[49]   
 BV BND1      u[50]   
 BV BND1      u[51]   
 BV BND1      u[52]   
 BV BND1      u[53]   
 BV BND1      u[54]   
 BV BND1      u[55]   
 BV BND1      u[56]   
 BV BND1      u[57]   
 BV BND1      u[58]   
 BV BND1      u[59]   
 BV BND1      r[0]    
 BV BND1      r[1]    
 BV BND1      r[2]    
 BV BND1      r[3]    
 BV BND1      r[4]    
 BV BND1      r[5]    
 BV BND1      r[6]    
 BV BND1      r[7]    
 BV BND1      r[8]    
 BV BND1      r[9]    
 BV BND1      r[10]   
 BV BND1      r[11]   
 BV BND1      r[12]   
 BV BND1      r[13]   
 BV BND1      r[14]   
 BV BND1      r[15]   
 BV BND1      r[16]   
 BV BND1      r[17]   
 BV BND1      r[18]   
 BV BND1      r[19]   
 BV BND1      r[20]   
 BV BND1      r[21]   
 BV BND1      r[22]   
 BV BND1      r[23]   
 BV BND1      r[24]   
 BV BND1      r[25]   
 BV BND1      r[26]   
 BV BND1      r[27]   
 BV BND1      r[28]   
 BV BND1      r[29]   
 BV BND1      r[30]   
 BV BND1      r[31]   
 BV BND1      r[32]   
 BV BND1      r[33]   
 BV BND1      r[34]   
 BV BND1      r[35]   
 BV BND1      r[36]   
 BV BND1      r[37]   
 BV BND1      r[38]   
 BV BND1      r[39]   
 BV BND1      r[40]   
 BV BND1      r[41]   
 BV BND1      r[42]   
 BV BND1      r[43]   
 BV BND1      r[44]   
 BV BND1      r[45]   
 BV BND1      r[46]   
 BV BND1      r[47]   
 BV BND1      r[48]   
 BV BND1      r[49]   
 BV BND1      r[50]   
 BV BND1      r[51]   
 BV BND1      r[52]   
 BV BND1      r[53]   
 BV BND1      r[54]   
 BV BND1      r[55]   
 BV BND1      r[56]   
 BV BND1      r[57]   
 BV BND1      r[58]   
 BV BND1      r[59]   
ENDATA
